CMD:
./solvers/bin/cadical --plain --no-reduce -t 1600 ./data/cnfs//boblivear/boblivear.78.cnf

c --- [ banner ] -------------------------------------------------------------
c 
c CaDiCaL SAT Solver
c Copyright (c) 2016-2024
c A. Biere, M. Fleury, N. Froleyks, K. Fazekas, F. Pollitt, T. Faller
c JKU Linz, University of Freiburg, TU Wien
c 
c Version 2.1.3 5296d3d2a9bf48c154ab2acb5e44625776d821bf
c g++ (Gentoo 12.3.1_p20230526 p2) 12.3.1 20230526 -Wall -Wextra -O3 -DNDEBUG
c Sat Aug 9 07:26:21 PDT 2025 Linux cedar2.int.cedar.computecanada.ca 5.14.0-362.24.2.el9_3.x86_64 x86_64
c 
c --- [ limit ] --------------------------------------------------------------
c 
c setting time limit to 1600 seconds real time (due to '-t 1600')
c 
c --- [ parsing input ] ------------------------------------------------------
c 
c reading DIMACS file from './data/cnfs//boblivear/boblivear.78.cnf'
c opening file to read './data/cnfs//boblivear/boblivear.78.cnf'
c found 'p cnf 25989 76391' header
c parsed 76391 clauses in 0.02 seconds process time
c 
c --- [ options ] ------------------------------------------------------------
c 
c   --compact=false                (different from default 'true')
c   --decompose=false              (different from default 'true')
c   --deduplicate=false            (different from default 'true')
c   --elim=false                   (different from default 'true')
c   --probe=false                  (different from default 'true')
c   --reduce=false                 (different from default 'true')
c   --subsume=false                (different from default 'true')
c   --ternary=false                (different from default 'true')
c   --transred=false               (different from default 'true')
c   --vivify=false                 (different from default 'true')
c 
c --- [ solving ] ------------------------------------------------------------
c 
c time measured in process time since initialization
c 
c  seconds  reductions  redundant  irredundant
c         MB    restarts       trail      variables
c          level   conflicts       glue        remaining
c 
c *  0.02 15  0 0   0    0    0  0% 0 73354 24849 96%
c {  0.03 16  0 0   0    0    0  0% 0 73354 24849 96%
c i  0.03 16 46 0   0   39   38 28% 3 73354 24844 96%
c i  0.05 16 143 0   6  314  100 40% 8 73354 24839 96%
c i  0.05 16 138 0   7  331  104 41% 7 73354 24834 96%
c i  0.05 16 123 0  18  409  179 37% 7 73354 24615 95%
c i  0.05 16 121 0  18  412  180 37% 7 73354 24614 95%
c i  0.06 16 116 0  23  440  205 37% 8 73354 24186 93%
c }  0.07 16 162 0  32 1003  740 46% 6 73354 24186 93%
c [  0.07 16  0 0  32 1003  740  0% 0 73354 24186 93%
c O  0.08 16 369 0  32 1004  741 99% 4 73354 24186 93%
c ]  0.22 17 219 0  33 3003 2573 73% 17 73354 24186 93%
c {  0.22 17 162 0  33 3003 2573 46% 6 73354 24186 93%
c F  0.22 17 162 0  33 3005 2575 46% 6 73354 24186 93%
c i  0.26 17 110 0  52 3998 3481 39% 5 73354 24177 93%
c #  0.32 18 83 0 109 6006 5306 33% 5 73354 24177 93%
c }  0.35 18 80 0 125 7003 6194 31% 4 73354 24177 93%
c [  0.35 18 219 0 125 7003 6194 73% 17 73354 24177 93%
c I  0.49 19 131 0 127 10007 8871 61% 10 73354 24177 93%
c ]  0.76 20 121 0 130 15003 13526 57% 10 73354 24177 93%
c 
c  seconds  reductions    redundant  irredundant
c         MB    restarts         trail      variables
c          level    conflicts        glue        remaining
c 
c {  0.76 20 80 0 130 15003 13526 31% 4 73354 24177 93%
c B  0.76 20 80 0 131 15010 13533 31% 4 73354 24177 93%
c i  0.99 21 70 0 340 17404 15640 33% 5 73354 24088 93%
c i  1.02 21 70 0 362 17553 15769 33% 5 73354 24087 93%
c i  1.13 21 67 0 426 19094 17192 34% 5 73354 24086 93%
c i  1.14 21 66 0 426 19291 17367 34% 5 73354 24084 93%
c i  1.14 21 66 0 426 19302 17372 34% 5 73354 24080 93%
c W  1.24 21 65 0 511 21012 18819 34% 5 69379 24080 93%
c i  1.71 22 64 0 1022 26329 23781 35% 5 69379 24060 93%
c F  1.86 22 63 0 1197 28014 25359 35% 5 69379 24060 93%
c }  2.13 23 61 0 1501 31003 28186 34% 5 69379 24060 93%
c [  2.13 23 121 0 1501 31003 28186 57% 10 69379 24060 93%
c B  2.54 24 99 0 1504 36017 32873 55% 9 69379 24060 93%
c W  3.04 32 98 0 1508 45018 41127 56% 9 69299 24060 93%
c O  3.97 32 109 0 1510 55021 50511 59% 10 69299 24060 93%
c ]  4.71 32 100 0 1516 63005 57739 59% 10 69299 24060 93%
c {  4.71 32 61 0 1516 63005 57739 34% 5 69299 24060 93%
c i  4.80 32 61 0 1627 63502 58185 34% 5 69299 24058 93%
c i  4.80 32 61 0 1627 63503 58185 34% 5 69299 24042 93%
c B  5.10 32 59 0 2044 66025 60456 33% 5 69299 24042 93%
c 
c  seconds  reductions     redundant  irredundant
c         MB    restarts          trail      variables
c          level     conflicts        glue        remaining
c 
c i  5.52 32 55 0 2518 70939 64841 32% 5 69299 24012 92%
c i  5.53 32 55 0 2528 71012 64879 32% 5 69299 23929 92%
c W  6.70 38 52 0 3632 78026 71240 33% 5 68833 23929 92%
c i  7.95 38 52 0 4891 87473 80044 33% 6 68833 23921 92%
... skipped 65 lines ...
c i 13.37 40 43 0 8808 121648 77787 39% 6 61647 21501 83%
c 
c  seconds  reductions      redundant  irredundant
c         MB    restarts           trail      variables
c          level     conflicts         glue        remaining
c 
c i 13.37 40 43 0 8809 121652 77790 39% 6 61647 21483 83%
c i 13.37 40 43 0 8809 121653 77790 39% 6 61647 21474 83%
c i 13.38 40 43 0 8809 121672 77805 39% 6 61647 21389 82%
c i 13.41 40 43 0 8820 121947 78060 39% 6 61647 21339 82%
c i 13.42 40 43 0 8820 121985 78082 39% 6 61647 21308 82%
c i 13.42 40 43 0 8820 121994 78085 39% 6 61647 21257 82%
c i 13.42 40 43 0 8820 122023 78102 39% 6 61647 21126 81%
c i 13.43 40 43 0 8820 122052 78121 39% 6 61647 21078 81%
c i 13.50 40 43 0 8881 122490 78523 39% 6 61647 20710 80%
c i 13.65 40 43 0 8953 123314 79249 39% 6 61647 20611 79%
c i 13.67 40 43 0 8953 123417 79334 39% 6 61647 20610 79%
c i 13.69 40 43 0 8976 123548 79435 39% 6 61647 20570 79%
c i 13.74 40 42 0 9016 124093 79934 39% 6 61647 20567 79%
c i 13.74 40 42 0 9016 124094 79934 39% 6 61647 20467 79%
c i 13.76 40 42 0 9029 124209 80044 39% 6 61647 20449 79%
c i 13.76 40 42 0 9029 124210 80044 39% 6 61647 20389 78%
c i 13.79 40 42 0 9041 124460 80269 40% 6 61647 20369 78%
c i 13.80 40 42 0 9042 124484 80288 40% 6 61647 20361 78%
c i 13.83 40 42 0 9049 124671 80452 40% 6 61647 20232 78%
c i 13.89 40 42 0 9084 124981 80728 40% 6 61647 19983 77%
c 
c  seconds  reductions      redundant  irredundant
c         MB    restarts           trail      variables
c          level     conflicts         glue        remaining
c 
c i 13.89 40 42 0 9084 124983 80729 40% 6 61647 19957 77%
c i 13.90 40 42 0 9088 125071 80813 40% 6 61647 19934 77%
c i 13.94 40 42 0 9097 125301 81015 40% 6 61647 19889 77%
c i 13.97 40 42 0 9107 125514 81167 40% 6 61647 19849 76%
c i 14.01 40 42 0 9118 125735 81351 40% 6 61647 19692 76%
c i 14.01 40 42 0 9118 125736 81351 40% 6 61647 19545 75%
c i 14.01 40 42 0 9119 125745 81356 40% 6 61647 19504 75%
c i 14.02 40 42 0 9123 125766 81373 40% 6 61647 19477 75%
c i 14.02 40 42 0 9124 125767 81373 40% 6 61647 19450 75%
c i 14.02 40 42 0 9125 125774 81379 40% 6 61647 19354 74%
c i 14.07 40 41 0 9142 126067 81632 40% 6 61647 19348 74%
c i 14.12 40 41 0 9162 126289 81801 40% 6 61647 16488 63%
c i 14.12 40 41 0 9162 126290 81801 40% 6 61647 16367 63%
c } 14.12 40 41 0 9162 126296 81805 40% 6 61647 16131 62%
c 0 14.12 40 41 0 9162 126296 81805 40% 6 61647 16131 62%
c 
c --- [ result ] -------------------------------------------------------------
c 
s UNSATISFIABLE
c 
c --- [ run-time profiling ] -------------------------------------------------
c 
c process time taken by individual solving procedures
c (percentage relative to process time for solving)
c 
c        14.10  100.00% search
c        10.82   76.73% unstable
c         3.11   22.08% stable
c         0.16    1.15% walk
c         0.02    0.12% parse
c         0.01    0.05% lucky
c         0.00    0.00% simplify
c   =================================
c        14.10   99.87% solve
c 
c last line shows process time for solving
c (percentage relative to total process time)
c 
c --- [ statistics ] ---------------------------------------------------------
c 
c chronological:             35035        27.74 %  of conflicts
c conflicts:                126296      8958.34    per second
c decisions:                533973     37875.41    per second
c fixed:                      9858        37.93 %  of all variables
c learned:                  121852        96.48 %  per conflict
c learned_lits:            4087230       100.00 %  learned literals
c minimized:                     0         0.00 %  learned literals
c shrunken:                 585874        14.33 %  learned literals
c minishrunken:             914985        22.39 %  learned literals
c otfs:                        742         0.59 %  of conflict
c propagations:          123874389         8.79 M  per second
c rephased:                     15      8419.73    interval
c restarts:                   9162        13.78    interval
c stabilizing:                   3        33.24 %  of conflicts
c subsumed:                   6529         3.35 %  of all clauses
c strengthened:                717         0.37 %  of all clauses
c walked:                        4     31574.00    interval
c 
c seconds are measured in process time for solving
c 
c --- [ resources ] ----------------------------------------------------------
c 
c total process time since initialization:        14.12    seconds
c total real time since initialization:           14.22    seconds
c maximum resident set size of process:           47.57    MB
c 
c --- [ shutting down ] ------------------------------------------------------
c 
c exit 20
